73778711136665452995013,9,1,2,012,6,1,2,013,11,1,2,04,13,1,2,012,11,1,2,02,2,1,2,011,4,1,2,08,2,1,2,012,5,1,2,01,15,1,2,04,13,1,2,04,11,1,2,05,3,1,2,02,14,1,2,04,8,1,2,013,15,1,2,03,14,1,2,07,14,1,2,02,6,1,2,05,8,1,2,013,1,1,2,014,3,1,2,08,13,1,2,015,1,1,2,014,9,1,2,06,5,1,2,05,8,1,2,05,11,1,2,011,12,1,2,06,9,1,2,010,9,1,2,08,10,1,2,08,9,1,2,015,15,1,2,08,7,1,2,08,14,1,2,013,1,1,2,02,15,1,2,014,6,1,2,014,4,1,2,09,10,1,2,05,15,1,2,013,9,1,2,010,3,1,2,015,12,1,2,015,9,1,2,06,14,1,2,07,2,1,2,010,2,1,2,015,3,1,2,0